spring_18/ind_study/IWLS18/exps/ets18_exps/fujita.cnf
p cnf 63 167
-4 -1 -2 0
4 1 -2 0
4 -1 2 0
-4 1 2 0
-25 -22 -23 0
25 22 -23 0
25 -22 23 0
-25 22 23 0
-46 -43 -44 0
46 43 -44 0
46 -43 44 0
-46 43 44 0
5 -1 -2 0
-5 1 0
-5 2 0
26 -22 -23 0
-26 22 0
-26 23 0
47 -43 -44 0
-47 43 0
-47 44 0
6 -4 -21 0
-6 4 0
-6 21 0
27 -25 -42 0
-27 25 0
-27 42 0
48 -46 -63 0
-48 46 0
-48 63 0
-7 -4 -21 0
7 4 -21 0
7 -4 21 0
-7 4 21 0
-28 -25 -42 0
28 25 -42 0
28 -25 42 0
-28 25 42 0
-49 -46 -63 0
49 46 -63 0
49 -46 63 0
-49 46 63 0
-8 5 6 0
8 -5 0
8 -6 0
-29 26 27 0
29 -26 0
29 -27 0
-50 47 48 0
50 -47 0
50 -48 0
1 -9 13 0
1 9 -13 0
-1 -10 13 0
-1 10 -13 0
22 -30 34 0
22 30 -34 0
-22 -31 34 0
-22 31 -34 0
1 -22 0
-1 22 0
43 -51 55 0
43 51 -55 0
-43 -52 55 0
-43 52 -55 0
22 -43 0
-22 43 0
1 -11 14 0
1 11 -14 0
-1 -12 14 0
-1 12 -14 0
22 -32 35 0
22 32 -35 0
-22 -33 35 0
-22 33 -35 0
1 -22 0
-1 22 0
43 -53 56 0
43 53 -56 0
-43 -54 56 0
-43 54 -56 0
22 -43 0
-22 43 0
2 -13 15 0
2 13 -15 0
-2 -14 15 0
-2 14 -15 0
23 -34 36 0
23 34 -36 0
-23 -35 36 0
-23 35 -36 0
2 -23 0
-2 23 0
44 -55 57 0
44 55 -57 0
-44 -56 57 0
-44 56 -57 0
23 -44 0
-23 44 0
16 -1 -2 0
-16 1 0
-16 2 0
37 -22 -23 0
-37 22 0
-37 23 0
58 -43 -44 0
-58 43 0
-58 44 0
17 -15 -21 0
-17 15 0
-17 21 0
38 -36 -42 0
-38 36 0
-38 42 0
59 -57 -63 0
-59 57 0
-59 63 0
-18 -15 -21 0
18 15 -21 0
18 -15 21 0
-18 15 21 0
-39 -36 -42 0
39 36 -42 0
39 -36 42 0
-39 36 42 0
-60 -57 -63 0
60 57 -63 0
60 -57 63 0
-60 57 63 0
-19 16 17 0
19 -16 0
19 -17 0
-40 37 38 0
40 -37 0
40 -38 0
-61 58 59 0
61 -58 0
61 -59 0
-20 -7 -18 0
20 7 -18 0
20 -7 18 0
-20 7 18 0
-41 -28 -39 0
41 28 -39 0
41 -28 39 0
-41 28 39 0
-62 -49 -60 0
62 49 -60 0
62 -49 60 0
-62 49 60 0
-21 -8 -19 0
21 8 -19 0
21 -8 19 0
-21 8 19 0
-42 -29 -40 0
42 29 -40 0
42 -29 40 0
-42 29 40 0
-63 -50 -61 0
63 50 -61 0
63 -50 61 0
-63 50 61 0
-20 0
-42 0
43 0
-44 0
-63 0
